data/rand/rand_081.gr
p tdp 15 48
1 3
1 4
1 6
1 7
1 9
1 13
1 15
2 7
2 11
2 13
2 14
2 15
3 5
3 6
3 9
3 11
3 13
3 14
4 5
4 7
4 8
4 11
5 8
5 10
5 11
5 12
5 14
6 7
6 11
6 14
6 15
7 8
7 9
7 11
7 12
7 13
8 10
8 12
8 13
8 15
9 10
9 12
10 12
10 14
11 12
12 14
13 15
14 15
