solutions/best/rand/rand_081.sol
10
0
8
14
8
10
15
1
3
10
12
7
4
15
11
2
